************************************************************************
file with basedata            : mm48_.bas
initial value random generator: 14104320
************************************************************************
projects                      :  1
jobs (incl. supersource/sink ):  12
horizon                       :  77
RESOURCES
  - renewable                 :  2   R
  - nonrenewable              :  2   N
  - doubly constrained        :  0   D
************************************************************************
PROJECT INFORMATION:
pronr.  #jobs rel.date duedate tardcost  MPM-Time
    1     10      0       10        2       10
************************************************************************
PRECEDENCE RELATIONS:
jobnr.    #modes  #successors   successors
   0        1          3           1   2   3
   1        3          2           5   9
   2        3          3           4   8  10
   3        3          2           5   9
   4        3          1           6
   5        3          2           7   8
   6        3          1           9
   7        3          1          10
   8        3          1          11
   9        3          1          11
  10        3          1          11
  11        1          0        
************************************************************************
REQUESTS/DURATIONS:
jobnr. mode duration  R 1  R 2  R 3  R 4  E(W 1)  E(W 2)  E(W 3)
------------------------------------------------------------------------
  0      1     0       0    0    0    0     0       0       0
  1      1     3       6    1   10    7    24      30      21
  2      1     2       7    7    5    6    28      10      12
  3      1     1       5    6    8    2    11       8       2
  4      1     2       6    7    6    5    26      12      10
  5      1     1       3    5    6    6     8       6       6
  6      1     1       6    4    9    6    10       9       6
  7      1     1       8    6   10    7    14      10       7
  8      1     6       7    8    9    8    90      54      48
  9      1     5       2   10    7    7    60      35      35
 10      1     5       7    4    3    9    55      15      45
 11      1     0       0    0    0    0     0       0       0
************************************************************************
RESOURCEAVAILABILITIES:
  R 1  R 2  R 3
   28   75   64
************************************************************************
RESOURCE LIMITS:
jobnr.  l(R 1)  u(R 1)  l(R 2)  u(R 2)  l(R 3)  u(R 3)
------------------------------------------------------------------------
  0        0       0       0       0       0       0
  1        4       8       5      10       4       7
  2        8      14       3       5       3       6
  3        6      11       4       8       1       2
  4        7      13       3       6       3       5
  5        5       8       3       6       3       6
  6        5      10       5       9       3       6
  7        7      14       5      10       4       7
  8        8      15       5       9       4       8
  9        6      12       4       7       4       7
 10        6      11       2       3       5       9
 11        0       0       0       0       0       0
************************************************************************
SCENARIOS:
------------------------------------------------------------------------
RESOURCE k = 1
s = 1: (0, 16, 22, 16, 23, 12, 6, 16, 72, 69, 52, 0)
s = 2: (0, 18, 17, 13, 28, 8, 12, 15, 54, 55, 56, 0)
s = 3: (0, 19, 34, 6, 21, 10, 7, 12, 99, 44, 59, 0)
s = 4: (0, 37, 27, 11, 15, 8, 11, 17, 85, 56, 62, 0)
s = 5: (0, 22, 39, 13, 27, 8, 10, 15, 59, 77, 38, 0)
s = 6: (0, 23, 24, 12, 22, 12, 8, 14, 120, 70, 46, 0)
s = 7: (0, 25, 22, 14, 31, 10, 13, 10, 72, 52, 61, 0)
s = 8: (0, 19, 30, 11, 29, 6, 10, 17, 92, 71, 68, 0)
s = 9: (0, 30, 22, 10, 34, 10, 9, 12, 122, 70, 46, 0)
s = 10: (0, 20, 26, 10, 28, 6, 11, 11, 82, 60, 57, 0)
s = 11: (0, 23, 33, 9, 20, 5, 8, 9, 64, 74, 53, 0)
s = 12: (0, 21, 24, 7, 38, 9, 8, 12, 134, 43, 88, 0)
s = 13: (0, 30, 35, 17, 32, 6, 9, 20, 114, 52, 73, 0)
s = 14: (0, 23, 45, 10, 35, 9, 9, 11, 53, 69, 40, 0)
s = 15: (0, 36, 32, 13, 26, 7, 8, 15, 69, 63, 32, 0)
s = 16: (0, 22, 23, 12, 33, 9, 6, 11, 79, 84, 64, 0)
s = 17: (0, 28, 22, 12, 29, 8, 13, 16, 105, 61, 51, 0)
s = 18: (0, 26, 33, 14, 17, 6, 8, 13, 87, 98, 73, 0)
s = 19: (0, 26, 20, 15, 18, 7, 12, 22, 111, 62, 38, 0)
s = 20: (0, 16, 29, 9, 19, 10, 8, 21, 58, 38, 33, 0)
s = 21: (0, 23, 21, 8, 31, 12, 9, 11, 69, 86, 68, 0)
s = 22: (0, 25, 23, 19, 42, 9, 14, 11, 66, 112, 43, 0)
s = 23: (0, 23, 26, 18, 38, 7, 9, 19, 52, 93, 64, 0)
s = 24: (0, 14, 16, 18, 17, 7, 14, 15, 60, 54, 79, 0)
s = 25: (0, 27, 22, 7, 29, 8, 8, 25, 60, 48, 69, 0)
s = 26: (0, 27, 40, 8, 18, 9, 8, 10, 82, 90, 40, 0)
s = 27: (0, 19, 44, 7, 22, 10, 10, 9, 100, 47, 66, 0)
s = 28: (0, 20, 17, 10, 38, 10, 10, 12, 62, 70, 51, 0)
s = 29: (0, 22, 38, 9, 31, 8, 7, 11, 61, 40, 58, 0)
s = 30: (0, 35, 23, 8, 21, 7, 10, 10, 101, 54, 57, 0)
s = 31: (0, 17, 20, 12, 27, 12, 8, 14, 85, 41, 75, 0)
s = 32: (0, 25, 21, 7, 23, 6, 7, 13, 74, 53, 48, 0)
s = 33: (0, 20, 35, 12, 31, 7, 12, 19, 143, 61, 39, 0)
s = 34: (0, 18, 20, 8, 38, 12, 8, 14, 103, 48, 43, 0)
s = 35: (0, 23, 27, 14, 23, 8, 14, 13, 67, 46, 60, 0)
s = 36: (0, 24, 21, 8, 17, 8, 10, 12, 72, 41, 57, 0)
s = 37: (0, 20, 35, 12, 28, 6, 10, 14, 76, 58, 56, 0)
s = 38: (0, 27, 26, 15, 45, 9, 11, 10, 98, 68, 51, 0)
s = 39: (0, 34, 23, 6, 43, 6, 9, 10, 80, 36, 67, 0)
s = 40: (0, 32, 38, 12, 25, 9, 10, 12, 137, 72, 75, 0)
s = 41: (0, 26, 32, 11, 18, 14, 11, 12, 76, 48, 60, 0)
s = 42: (0, 27, 35, 16, 28, 5, 7, 20, 86, 88, 45, 0)
s = 43: (0, 25, 23, 12, 32, 12, 9, 12, 74, 114, 47, 0)
s = 44: (0, 23, 28, 13, 27, 7, 12, 15, 74, 35, 98, 0)
s = 45: (0, 18, 16, 21, 34, 6, 9, 15, 57, 72, 65, 0)
s = 46: (0, 23, 31, 14, 26, 5, 13, 12, 135, 47, 42, 0)
s = 47: (0, 18, 24, 15, 25, 9, 9, 12, 55, 50, 46, 0)
s = 48: (0, 25, 22, 7, 34, 10, 8, 14, 126, 55, 41, 0)
s = 49: (0, 21, 18, 14, 24, 7, 9, 14, 130, 41, 105, 0)
s = 50: (0, 25, 32, 12, 20, 9, 14, 21, 120, 99, 53, 0)
s = 51: (0, 24, 22, 11, 18, 6, 9, 24, 110, 81, 33, 0)
s = 52: (0, 34, 21, 14, 18, 8, 9, 15, 107, 107, 81, 0)
s = 53: (0, 27, 20, 9, 24, 9, 6, 23, 83, 38, 46, 0)
s = 54: (0, 16, 25, 10, 18, 8, 8, 15, 73, 55, 58, 0)
s = 55: (0, 17, 30, 7, 20, 11, 8, 14, 100, 64, 76, 0)
s = 56: (0, 26, 23, 15, 41, 5, 10, 9, 106, 37, 55, 0)
s = 57: (0, 24, 22, 10, 26, 13, 11, 12, 99, 50, 62, 0)
s = 58: (0, 23, 31, 11, 22, 10, 16, 12, 90, 49, 58, 0)
s = 59: (0, 22, 29, 15, 32, 14, 7, 18, 75, 64, 40, 0)
s = 60: (0, 20, 41, 7, 18, 8, 9, 15, 90, 53, 60, 0)
s = 61: (0, 28, 31, 10, 19, 9, 12, 16, 77, 90, 36, 0)
s = 62: (0, 30, 29, 9, 24, 7, 12, 17, 66, 57, 95, 0)
s = 63: (0, 13, 32, 8, 20, 11, 9, 10, 90, 98, 61, 0)
s = 64: (0, 24, 20, 16, 17, 9, 7, 15, 94, 40, 51, 0)
s = 65: (0, 37, 29, 6, 20, 6, 12, 12, 49, 54, 57, 0)
s = 66: (0, 26, 45, 10, 38, 5, 6, 12, 102, 100, 78, 0)
s = 67: (0, 21, 34, 12, 21, 14, 9, 9, 133, 46, 76, 0)
s = 68: (0, 25, 40, 10, 34, 13, 12, 16, 141, 67, 38, 0)
s = 69: (0, 39, 19, 15, 38, 11, 8, 10, 51, 58, 56, 0)
s = 70: (0, 17, 34, 9, 21, 6, 11, 26, 106, 35, 52, 0)
s = 71: (0, 24, 23, 10, 28, 7, 14, 14, 58, 50, 42, 0)
s = 72: (0, 25, 22, 7, 31, 9, 10, 13, 116, 56, 47, 0)
s = 73: (0, 33, 57, 15, 34, 6, 7, 15, 138, 45, 42, 0)
s = 74: (0, 30, 26, 9, 34, 10, 11, 15, 119, 101, 35, 0)
s = 75: (0, 18, 48, 13, 23, 11, 13, 9, 124, 59, 42, 0)
s = 76: (0, 26, 21, 12, 19, 9, 14, 20, 63, 90, 65, 0)
s = 77: (0, 27, 33, 13, 19, 8, 10, 18, 97, 56, 33, 0)
s = 78: (0, 22, 39, 11, 42, 6, 8, 10, 99, 41, 38, 0)
s = 79: (0, 24, 30, 13, 20, 5, 8, 11, 102, 58, 62, 0)
s = 80: (0, 28, 33, 18, 21, 7, 10, 10, 89, 62, 43, 0)
s = 81: (0, 34, 39, 12, 23, 6, 17, 19, 108, 59, 58, 0)
s = 82: (0, 19, 24, 14, 30, 9, 15, 13, 59, 79, 72, 0)
s = 83: (0, 23, 35, 6, 38, 7, 10, 22, 85, 92, 58, 0)
s = 84: (0, 35, 18, 7, 18, 9, 9, 14, 83, 53, 66, 0)
s = 85: (0, 27, 20, 13, 25, 9, 7, 12, 153, 64, 42, 0)
s = 86: (0, 21, 32, 7, 38, 5, 7, 17, 62, 35, 42, 0)
s = 87: (0, 14, 21, 12, 21, 13, 15, 12, 132, 44, 55, 0)
s = 88: (0, 30, 47, 6, 28, 12, 10, 13, 90, 56, 62, 0)
s = 89: (0, 16, 24, 14, 24, 7, 10, 12, 78, 62, 56, 0)
s = 90: (0, 18, 36, 15, 29, 8, 12, 15, 54, 44, 35, 0)
s = 91: (0, 24, 25, 10, 27, 13, 11, 8, 115, 71, 39, 0)
s = 92: (0, 20, 23, 10, 29, 6, 12, 20, 83, 90, 65, 0)
s = 93: (0, 22, 23, 11, 27, 7, 6, 10, 128, 83, 33, 0)
s = 94: (0, 33, 39, 14, 16, 8, 11, 16, 91, 76, 83, 0)
s = 95: (0, 26, 20, 17, 38, 14, 11, 13, 64, 70, 38, 0)
s = 96: (0, 22, 24, 9, 17, 9, 8, 18, 134, 43, 44, 0)
s = 97: (0, 14, 24, 12, 19, 10, 10, 14, 73, 40, 38, 0)
s = 98: (0, 15, 26, 9, 28, 12, 10, 18, 122, 60, 88, 0)
s = 99: (0, 35, 24, 7, 21, 6, 9, 13, 115, 73, 55, 0)
s = 100: (0, 18, 24, 9, 20, 15, 16, 12, 124, 61, 63, 0)
s = 101: (0, 32, 31, 9, 24, 8, 11, 9, 96, 45, 62, 0)
s = 102: (0, 19, 22, 9, 16, 9, 10, 17, 93, 42, 32, 0)
s = 103: (0, 27, 15, 9, 32, 6, 12, 13, 90, 86, 58, 0)
s = 104: (0, 27, 19, 12, 27, 6, 8, 19, 68, 75, 63, 0)
s = 105: (0, 22, 27, 8, 21, 9, 8, 18, 71, 33, 88, 0)
s = 106: (0, 30, 36, 13, 24, 11, 7, 9, 53, 48, 75, 0)
s = 107: (0, 20, 35, 14, 26, 12, 11, 16, 67, 37, 44, 0)
s = 108: (0, 18, 35, 8, 28, 6, 8, 14, 53, 41, 54, 0)
s = 109: (0, 14, 25, 7, 31, 9, 11, 16, 106, 66, 62, 0)
s = 110: (0, 17, 27, 15, 37, 12, 8, 13, 79, 68, 82, 0)
s = 111: (0, 22, 23, 6, 22, 10, 14, 17, 86, 60, 82, 0)
s = 112: (0, 27, 31, 17, 32, 8, 8, 21, 60, 67, 45, 0)
s = 113: (0, 19, 33, 20, 42, 14, 6, 10, 72, 54, 69, 0)
s = 114: (0, 23, 24, 17, 22, 10, 11, 21, 143, 58, 51, 0)
s = 115: (0, 49, 15, 7, 35, 9, 14, 17, 132, 58, 66, 0)
s = 116: (0, 35, 47, 13, 20, 6, 10, 9, 102, 88, 48, 0)
s = 117: (0, 23, 35, 11, 40, 6, 6, 8, 132, 45, 35, 0)
s = 118: (0, 26, 28, 14, 15, 8, 11, 12, 85, 97, 55, 0)
s = 119: (0, 25, 33, 8, 43, 7, 12, 14, 90, 61, 54, 0)
s = 120: (0, 17, 30, 14, 17, 8, 16, 13, 111, 88, 55, 0)
s = 121: (0, 25, 20, 10, 24, 6, 12, 16, 105, 42, 31, 0)
s = 122: (0, 26, 28, 16, 25, 7, 11, 11, 145, 61, 58, 0)
s = 123: (0, 21, 38, 9, 15, 7, 8, 17, 83, 68, 71, 0)
s = 124: (0, 20, 38, 17, 21, 5, 6, 11, 102, 68, 41, 0)
s = 125: (0, 35, 22, 7, 27, 7, 12, 22, 109, 61, 35, 0)
s = 126: (0, 36, 22, 12, 21, 7, 14, 17, 63, 108, 58, 0)
s = 127: (0, 19, 17, 12, 27, 8, 11, 9, 73, 37, 49, 0)
s = 128: (0, 19, 19, 14, 22, 10, 7, 10, 96, 53, 44, 0)
s = 129: (0, 23, 33, 9, 22, 9, 8, 13, 81, 75, 90, 0)
s = 130: (0, 17, 49, 14, 31, 7, 7, 11, 137, 51, 74, 0)
s = 131: (0, 17, 19, 11, 23, 6, 15, 15, 116, 59, 57, 0)
s = 132: (0, 31, 30, 13, 33, 6, 16, 17, 105, 63, 65, 0)
s = 133: (0, 19, 43, 7, 21, 7, 9, 12, 68, 70, 61, 0)
s = 134: (0, 29, 29, 13, 37, 9, 12, 18, 77, 74, 59, 0)
s = 135: (0, 21, 24, 11, 17, 8, 8, 26, 66, 50, 45, 0)
s = 136: (0, 29, 31, 19, 23, 7, 8, 15, 163, 50, 43, 0)
s = 137: (0, 38, 32, 9, 22, 9, 14, 12, 94, 74, 58, 0)
s = 138: (0, 15, 20, 11, 30, 8, 13, 12, 95, 54, 51, 0)
s = 139: (0, 33, 27, 8, 36, 7, 10, 9, 95, 85, 67, 0)
s = 140: (0, 24, 29, 11, 18, 14, 16, 10, 80, 64, 78, 0)
s = 141: (0, 42, 30, 10, 29, 6, 8, 20, 93, 85, 71, 0)
s = 142: (0, 18, 31, 11, 24, 6, 9, 13, 72, 49, 31, 0)
s = 143: (0, 35, 35, 9, 44, 6, 11, 17, 70, 59, 62, 0)
s = 144: (0, 21, 35, 10, 27, 7, 15, 21, 79, 46, 53, 0)
s = 145: (0, 22, 21, 11, 33, 6, 12, 15, 72, 49, 48, 0)
s = 146: (0, 19, 21, 7, 32, 10, 7, 8, 99, 87, 36, 0)
s = 147: (0, 24, 27, 8, 34, 5, 9, 16, 99, 67, 46, 0)
s = 148: (0, 20, 50, 14, 27, 8, 6, 13, 122, 45, 55, 0)
s = 149: (0, 18, 35, 12, 27, 5, 12, 18, 112, 78, 45, 0)
s = 150: (0, 30, 28, 12, 39, 14, 13, 9, 77, 55, 64, 0)
s = 151: (0, 38, 21, 8, 26, 8, 12, 13, 57, 99, 63, 0)
s = 152: (0, 37, 29, 10, 24, 16, 8, 17, 75, 80, 44, 0)
s = 153: (0, 28, 52, 10, 27, 12, 9, 24, 64, 66, 72, 0)
s = 154: (0, 31, 22, 10, 23, 9, 11, 18, 52, 64, 58, 0)
s = 155: (0, 20, 16, 8, 25, 7, 9, 16, 126, 87, 37, 0)
s = 156: (0, 22, 34, 12, 22, 12, 10, 12, 138, 41, 93, 0)
s = 157: (0, 15, 25, 10, 46, 7, 9, 10, 122, 46, 43, 0)
s = 158: (0, 24, 44, 9, 23, 11, 12, 12, 133, 67, 44, 0)
s = 159: (0, 14, 17, 14, 15, 12, 10, 12, 50, 62, 72, 0)
s = 160: (0, 15, 46, 8, 24, 9, 14, 12, 60, 35, 39, 0)
s = 161: (0, 21, 34, 11, 22, 9, 10, 16, 133, 84, 53, 0)
s = 162: (0, 31, 37, 8, 46, 6, 8, 10, 85, 59, 51, 0)
s = 163: (0, 13, 26, 8, 20, 9, 13, 13, 68, 35, 83, 0)
s = 164: (0, 35, 18, 13, 16, 12, 14, 14, 67, 66, 42, 0)
s = 165: (0, 16, 31, 15, 30, 10, 15, 11, 149, 45, 87, 0)
s = 166: (0, 28, 19, 14, 25, 10, 15, 17, 98, 87, 71, 0)
s = 167: (0, 15, 23, 10, 28, 7, 11, 14, 71, 50, 68, 0)
s = 168: (0, 38, 28, 16, 40, 8, 13, 20, 94, 48, 74, 0)
s = 169: (0, 20, 33, 11, 20, 5, 17, 12, 67, 74, 67, 0)
s = 170: (0, 22, 44, 10, 42, 9, 13, 14, 98, 56, 60, 0)
s = 171: (0, 23, 22, 8, 21, 9, 13, 12, 130, 47, 44, 0)
s = 172: (0, 15, 30, 7, 17, 10, 6, 18, 96, 56, 82, 0)
s = 173: (0, 21, 32, 10, 38, 10, 17, 18, 71, 46, 57, 0)
s = 174: (0, 23, 32, 11, 33, 7, 8, 16, 58, 39, 56, 0)
s = 175: (0, 25, 29, 7, 27, 12, 11, 12, 104, 58, 68, 0)
s = 176: (0, 20, 37, 18, 28, 9, 10, 11, 58, 33, 62, 0)
s = 177: (0, 18, 27, 11, 33, 11, 10, 12, 154, 77, 41, 0)
s = 178: (0, 21, 25, 8, 42, 11, 8, 17, 84, 48, 67, 0)
s = 179: (0, 32, 32, 10, 35, 8, 12, 11, 79, 37, 51, 0)
s = 180: (0, 24, 15, 12, 28, 12, 11, 13, 86, 74, 33, 0)
s = 181: (0, 30, 28, 10, 24, 9, 7, 13, 74, 35, 44, 0)
s = 182: (0, 20, 21, 10, 19, 7, 10, 13, 146, 41, 63, 0)
s = 183: (0, 17, 33, 12, 19, 9, 14, 12, 126, 43, 43, 0)
s = 184: (0, 21, 30, 13, 41, 12, 12, 10, 62, 77, 44, 0)
s = 185: (0, 26, 35, 8, 16, 9, 8, 15, 57, 65, 42, 0)
s = 186: (0, 27, 29, 9, 27, 8, 9, 15, 136, 46, 59, 0)
s = 187: (0, 17, 49, 8, 23, 8, 7, 17, 96, 74, 90, 0)
s = 188: (0, 27, 19, 11, 33, 6, 8, 16, 59, 68, 62, 0)
s = 189: (0, 19, 27, 7, 19, 10, 15, 15, 57, 51, 75, 0)
s = 190: (0, 22, 37, 9, 22, 7, 9, 24, 123, 37, 61, 0)
s = 191: (0, 26, 33, 7, 28, 9, 8, 10, 82, 84, 81, 0)
s = 192: (0, 36, 23, 9, 18, 12, 8, 11, 88, 61, 50, 0)
s = 193: (0, 26, 27, 12, 42, 8, 7, 14, 85, 92, 38, 0)
s = 194: (0, 27, 23, 13, 37, 9, 12, 18, 94, 53, 65, 0)
s = 195: (0, 21, 30, 13, 26, 9, 13, 14, 72, 76, 56, 0)
s = 196: (0, 20, 22, 10, 35, 8, 10, 14, 58, 107, 62, 0)
s = 197: (0, 16, 20, 13, 31, 9, 9, 19, 103, 80, 95, 0)
s = 198: (0, 18, 34, 9, 16, 6, 13, 15, 81, 56, 42, 0)
s = 199: (0, 29, 21, 8, 20, 8, 10, 18, 75, 57, 60, 0)
s = 200: (0, 23, 36, 9, 18, 7, 8, 12, 64, 71, 68, 0)
------------------------------------------------------------------------
RESOURCE k = 2
s = 1: (0, 20, 8, 12, 11, 9, 5, 11, 44, 41, 15, 0)
s = 2: (0, 23, 6, 10, 13, 6, 10, 11, 33, 32, 16, 0)
s = 3: (0, 23, 12, 5, 10, 7, 6, 9, 59, 26, 16, 0)
s = 4: (0, 46, 10, 8, 7, 6, 10, 12, 51, 33, 17, 0)
s = 5: (0, 27, 14, 10, 13, 6, 9, 11, 36, 45, 11, 0)
s = 6: (0, 29, 9, 9, 11, 9, 8, 10, 72, 41, 13, 0)
s = 7: (0, 31, 8, 10, 15, 7, 12, 7, 43, 30, 17, 0)
s = 8: (0, 23, 11, 8, 14, 4, 9, 12, 56, 42, 19, 0)
s = 9: (0, 38, 8, 8, 16, 7, 8, 9, 73, 41, 13, 0)
s = 10: (0, 25, 9, 8, 13, 5, 10, 8, 49, 35, 16, 0)
s = 11: (0, 28, 12, 7, 10, 4, 7, 7, 39, 43, 15, 0)
s = 12: (0, 27, 9, 6, 18, 7, 7, 9, 81, 25, 24, 0)
s = 13: (0, 38, 13, 12, 15, 5, 8, 15, 68, 31, 20, 0)
s = 14: (0, 28, 16, 7, 16, 7, 8, 8, 32, 40, 11, 0)
s = 15: (0, 45, 12, 10, 12, 5, 8, 11, 41, 37, 9, 0)
s = 16: (0, 28, 9, 9, 16, 7, 6, 8, 47, 49, 18, 0)
s = 17: (0, 35, 8, 9, 14, 6, 11, 12, 63, 36, 14, 0)
s = 18: (0, 32, 12, 10, 8, 4, 7, 10, 52, 58, 20, 0)
s = 19: (0, 32, 8, 11, 9, 6, 11, 16, 67, 37, 11, 0)
s = 20: (0, 20, 11, 7, 9, 7, 7, 15, 35, 23, 9, 0)
s = 21: (0, 29, 8, 6, 15, 9, 8, 8, 41, 50, 19, 0)
s = 22: (0, 31, 9, 14, 20, 7, 13, 8, 40, 65, 12, 0)
s = 23: (0, 29, 9, 13, 18, 5, 8, 14, 32, 54, 18, 0)
s = 24: (0, 17, 6, 13, 8, 6, 13, 11, 36, 32, 22, 0)
s = 25: (0, 34, 8, 5, 14, 6, 7, 18, 36, 28, 19, 0)
s = 26: (0, 34, 15, 6, 8, 7, 7, 7, 49, 53, 11, 0)
s = 27: (0, 24, 16, 5, 10, 8, 9, 7, 60, 27, 18, 0)
s = 28: (0, 25, 6, 8, 18, 8, 9, 9, 37, 41, 14, 0)
s = 29: (0, 28, 14, 6, 15, 6, 6, 8, 37, 23, 16, 0)
s = 30: (0, 44, 8, 6, 10, 5, 9, 8, 61, 32, 16, 0)
s = 31: (0, 21, 7, 9, 13, 9, 7, 10, 51, 24, 21, 0)
s = 32: (0, 31, 8, 5, 11, 4, 6, 10, 45, 31, 13, 0)
s = 33: (0, 24, 13, 9, 15, 5, 11, 14, 86, 36, 11, 0)
s = 34: (0, 22, 7, 6, 18, 9, 7, 10, 62, 28, 12, 0)
s = 35: (0, 29, 10, 11, 11, 6, 13, 9, 40, 27, 17, 0)
s = 36: (0, 30, 8, 6, 8, 6, 9, 9, 44, 24, 16, 0)
s = 37: (0, 25, 13, 9, 13, 4, 9, 10, 46, 34, 16, 0)
s = 38: (0, 34, 10, 11, 21, 7, 10, 7, 59, 40, 14, 0)
s = 39: (0, 42, 8, 5, 20, 5, 8, 8, 48, 21, 19, 0)
s = 40: (0, 40, 14, 9, 12, 7, 9, 9, 83, 42, 21, 0)
s = 41: (0, 32, 12, 8, 9, 11, 10, 9, 46, 28, 17, 0)
s = 42: (0, 34, 13, 12, 13, 4, 6, 14, 52, 52, 13, 0)
s = 43: (0, 31, 9, 9, 15, 9, 8, 9, 45, 67, 13, 0)
s = 44: (0, 29, 10, 10, 13, 5, 11, 11, 44, 21, 27, 0)
s = 45: (0, 22, 6, 15, 16, 5, 9, 11, 34, 42, 18, 0)
s = 46: (0, 29, 12, 10, 12, 4, 12, 9, 81, 28, 12, 0)
s = 47: (0, 22, 9, 11, 12, 7, 9, 8, 33, 29, 13, 0)
s = 48: (0, 31, 8, 5, 16, 7, 7, 10, 76, 32, 12, 0)
s = 49: (0, 27, 7, 11, 11, 6, 8, 10, 78, 24, 29, 0)
s = 50: (0, 31, 12, 9, 9, 7, 12, 15, 72, 58, 15, 0)
s = 51: (0, 30, 8, 8, 8, 5, 9, 17, 66, 47, 9, 0)
s = 52: (0, 42, 8, 10, 8, 6, 9, 11, 64, 63, 22, 0)
s = 53: (0, 34, 7, 7, 11, 7, 6, 16, 50, 22, 13, 0)
s = 54: (0, 20, 9, 7, 8, 6, 8, 11, 44, 32, 16, 0)
s = 55: (0, 21, 11, 5, 10, 9, 7, 10, 60, 37, 21, 0)
s = 56: (0, 32, 8, 11, 19, 4, 9, 7, 64, 22, 15, 0)
s = 57: (0, 30, 8, 7, 12, 10, 10, 9, 60, 30, 17, 0)
s = 58: (0, 29, 11, 8, 10, 8, 15, 9, 54, 29, 16, 0)
s = 59: (0, 27, 11, 11, 15, 11, 6, 13, 45, 38, 11, 0)
s = 60: (0, 25, 15, 5, 9, 6, 8, 11, 54, 31, 17, 0)
s = 61: (0, 35, 11, 7, 9, 7, 11, 12, 46, 53, 10, 0)
s = 62: (0, 37, 11, 7, 11, 5, 10, 12, 40, 33, 26, 0)
s = 63: (0, 17, 12, 6, 9, 8, 8, 7, 54, 57, 17, 0)
s = 64: (0, 30, 7, 11, 8, 7, 6, 11, 56, 24, 14, 0)
s = 65: (0, 46, 11, 5, 10, 5, 11, 9, 29, 32, 16, 0)
s = 66: (0, 32, 16, 8, 18, 4, 6, 9, 61, 58, 22, 0)
s = 67: (0, 27, 12, 9, 10, 10, 8, 6, 80, 27, 21, 0)
s = 68: (0, 31, 15, 8, 16, 10, 11, 12, 85, 39, 11, 0)
s = 69: (0, 48, 7, 11, 18, 9, 7, 8, 31, 34, 16, 0)
s = 70: (0, 22, 13, 7, 10, 5, 10, 19, 64, 21, 15, 0)
s = 71: (0, 29, 8, 7, 13, 5, 13, 10, 35, 29, 12, 0)
s = 72: (0, 32, 8, 5, 14, 7, 9, 9, 70, 33, 13, 0)
s = 73: (0, 41, 21, 11, 16, 5, 7, 11, 83, 27, 12, 0)
s = 74: (0, 37, 10, 7, 16, 8, 10, 11, 72, 59, 10, 0)
s = 75: (0, 22, 17, 10, 11, 9, 11, 6, 75, 35, 12, 0)
s = 76: (0, 32, 8, 9, 9, 7, 13, 14, 38, 53, 18, 0)
s = 77: (0, 34, 12, 10, 9, 6, 9, 13, 58, 33, 9, 0)
s = 78: (0, 27, 14, 8, 20, 5, 8, 8, 59, 24, 11, 0)
s = 79: (0, 30, 11, 9, 10, 4, 8, 8, 62, 34, 17, 0)
s = 80: (0, 35, 12, 14, 10, 5, 9, 7, 53, 36, 12, 0)
s = 81: (0, 42, 14, 9, 11, 4, 15, 14, 65, 35, 16, 0)
s = 82: (0, 24, 9, 11, 14, 7, 14, 9, 36, 46, 20, 0)
s = 83: (0, 29, 13, 5, 18, 6, 9, 16, 51, 54, 16, 0)
s = 84: (0, 44, 7, 5, 9, 7, 8, 10, 50, 31, 18, 0)
s = 85: (0, 33, 8, 9, 12, 7, 6, 9, 92, 38, 12, 0)
s = 86: (0, 26, 12, 6, 18, 4, 6, 12, 37, 21, 12, 0)
s = 87: (0, 18, 8, 9, 10, 10, 13, 9, 79, 26, 15, 0)
s = 88: (0, 37, 17, 5, 13, 9, 9, 10, 54, 33, 17, 0)
s = 89: (0, 20, 9, 10, 11, 5, 9, 9, 47, 36, 16, 0)
s = 90: (0, 22, 13, 11, 14, 6, 11, 11, 32, 26, 10, 0)
s = 91: (0, 30, 9, 8, 13, 10, 10, 6, 69, 42, 11, 0)
s = 92: (0, 25, 9, 8, 13, 4, 11, 15, 50, 53, 18, 0)
s = 93: (0, 28, 8, 8, 13, 5, 6, 7, 77, 48, 9, 0)
s = 94: (0, 41, 14, 11, 8, 6, 10, 12, 55, 44, 23, 0)
s = 95: (0, 32, 7, 13, 18, 11, 10, 10, 38, 41, 11, 0)
s = 96: (0, 28, 9, 7, 8, 7, 7, 13, 81, 25, 12, 0)
s = 97: (0, 17, 9, 9, 9, 8, 9, 10, 44, 24, 11, 0)
s = 98: (0, 18, 10, 7, 13, 9, 9, 13, 73, 35, 24, 0)
s = 99: (0, 43, 9, 5, 10, 5, 9, 10, 69, 43, 15, 0)
s = 100: (0, 23, 9, 7, 9, 11, 15, 9, 75, 36, 18, 0)
s = 101: (0, 39, 11, 7, 11, 6, 10, 7, 58, 27, 17, 0)
s = 102: (0, 24, 8, 6, 7, 7, 9, 12, 56, 25, 9, 0)
s = 103: (0, 34, 6, 6, 15, 4, 11, 9, 54, 50, 16, 0)
s = 104: (0, 33, 7, 9, 13, 4, 7, 14, 41, 44, 17, 0)
s = 105: (0, 27, 10, 6, 10, 7, 8, 13, 43, 20, 24, 0)
s = 106: (0, 37, 13, 10, 12, 8, 7, 6, 32, 28, 21, 0)
s = 107: (0, 25, 13, 11, 12, 9, 10, 11, 40, 22, 12, 0)
s = 108: (0, 22, 13, 6, 13, 4, 7, 10, 32, 24, 15, 0)
s = 109: (0, 18, 9, 5, 14, 7, 10, 11, 64, 39, 17, 0)
s = 110: (0, 21, 10, 11, 17, 9, 7, 10, 47, 40, 23, 0)
s = 111: (0, 28, 9, 5, 10, 8, 13, 12, 52, 35, 23, 0)
s = 112: (0, 34, 11, 12, 15, 6, 7, 15, 36, 39, 13, 0)
s = 113: (0, 23, 12, 15, 19, 11, 6, 7, 43, 31, 19, 0)
s = 114: (0, 28, 9, 12, 10, 8, 10, 15, 86, 34, 14, 0)
s = 115: (0, 62, 6, 5, 16, 7, 13, 12, 79, 34, 18, 0)
s = 116: (0, 44, 17, 10, 10, 5, 9, 7, 61, 52, 14, 0)
s = 117: (0, 29, 13, 8, 19, 5, 6, 6, 80, 27, 10, 0)
s = 118: (0, 33, 10, 10, 7, 6, 10, 8, 51, 57, 15, 0)
s = 119: (0, 31, 12, 6, 20, 5, 11, 10, 54, 36, 15, 0)
s = 120: (0, 21, 11, 10, 8, 6, 14, 9, 67, 51, 15, 0)
s = 121: (0, 31, 7, 7, 11, 5, 11, 12, 63, 25, 9, 0)
s = 122: (0, 33, 10, 11, 12, 5, 10, 8, 87, 36, 16, 0)
s = 123: (0, 27, 14, 7, 7, 5, 7, 13, 50, 40, 20, 0)
s = 124: (0, 25, 14, 12, 10, 4, 5, 8, 62, 40, 12, 0)
s = 125: (0, 43, 8, 5, 13, 6, 11, 16, 66, 36, 10, 0)
s = 126: (0, 45, 8, 9, 10, 5, 13, 12, 38, 63, 16, 0)
s = 127: (0, 23, 6, 9, 13, 6, 10, 7, 44, 22, 14, 0)
s = 128: (0, 23, 7, 10, 11, 7, 6, 7, 58, 31, 12, 0)
s = 129: (0, 29, 12, 6, 11, 7, 7, 10, 49, 44, 25, 0)
s = 130: (0, 21, 18, 11, 14, 6, 6, 8, 82, 30, 21, 0)
s = 131: (0, 21, 7, 8, 11, 5, 14, 11, 70, 34, 16, 0)
s = 132: (0, 39, 11, 10, 16, 5, 14, 12, 63, 37, 18, 0)
s = 133: (0, 23, 16, 5, 10, 5, 8, 9, 41, 41, 17, 0)
s = 134: (0, 37, 11, 9, 17, 7, 11, 13, 46, 44, 16, 0)
s = 135: (0, 26, 9, 8, 8, 6, 7, 19, 40, 29, 13, 0)
s = 136: (0, 36, 11, 14, 11, 5, 7, 11, 98, 29, 12, 0)
s = 137: (0, 48, 12, 6, 10, 7, 13, 8, 57, 43, 16, 0)
s = 138: (0, 19, 7, 8, 14, 6, 11, 9, 57, 32, 14, 0)
s = 139: (0, 41, 10, 6, 17, 5, 9, 7, 57, 50, 19, 0)
s = 140: (0, 30, 11, 8, 8, 10, 15, 8, 48, 38, 22, 0)
s = 141: (0, 52, 11, 7, 14, 5, 8, 14, 56, 50, 20, 0)
s = 142: (0, 23, 11, 8, 12, 5, 8, 9, 43, 29, 9, 0)
s = 143: (0, 44, 13, 7, 21, 5, 10, 13, 42, 35, 17, 0)
s = 144: (0, 26, 13, 7, 13, 6, 14, 15, 47, 27, 15, 0)
s = 145: (0, 27, 8, 8, 15, 5, 11, 11, 44, 29, 13, 0)
s = 146: (0, 24, 8, 5, 15, 8, 6, 6, 60, 51, 10, 0)
s = 147: (0, 30, 10, 6, 16, 4, 8, 12, 60, 40, 13, 0)
s = 148: (0, 25, 18, 11, 13, 6, 5, 10, 73, 26, 15, 0)
s = 149: (0, 22, 13, 9, 13, 4, 11, 13, 68, 46, 13, 0)
s = 150: (0, 37, 10, 9, 18, 11, 12, 7, 46, 32, 18, 0)
s = 151: (0, 47, 8, 6, 12, 6, 11, 9, 35, 58, 17, 0)
s = 152: (0, 46, 11, 7, 11, 12, 8, 12, 45, 47, 12, 0)
s = 153: (0, 35, 19, 8, 13, 9, 8, 17, 39, 39, 20, 0)
s = 154: (0, 38, 8, 7, 11, 7, 10, 13, 32, 37, 16, 0)
s = 155: (0, 24, 6, 6, 12, 6, 9, 11, 76, 51, 10, 0)
s = 156: (0, 27, 12, 9, 11, 9, 9, 8, 83, 24, 26, 0)
s = 157: (0, 19, 9, 8, 22, 5, 8, 7, 74, 27, 12, 0)
s = 158: (0, 30, 16, 7, 11, 8, 11, 9, 80, 39, 12, 0)
s = 159: (0, 18, 6, 10, 7, 9, 9, 9, 30, 36, 20, 0)
s = 160: (0, 18, 17, 6, 11, 7, 12, 8, 36, 21, 11, 0)
s = 161: (0, 26, 12, 8, 11, 7, 9, 12, 80, 49, 15, 0)
s = 162: (0, 38, 13, 6, 22, 5, 7, 7, 51, 34, 14, 0)
s = 163: (0, 16, 10, 6, 9, 7, 11, 9, 41, 20, 23, 0)
s = 164: (0, 44, 7, 10, 8, 9, 12, 10, 41, 39, 12, 0)
s = 165: (0, 20, 11, 11, 14, 7, 14, 8, 89, 27, 24, 0)
s = 166: (0, 35, 7, 10, 12, 8, 14, 13, 59, 51, 20, 0)
s = 167: (0, 19, 8, 8, 13, 5, 10, 10, 43, 30, 19, 0)
s = 168: (0, 48, 10, 12, 19, 6, 11, 15, 56, 28, 20, 0)
s = 169: (0, 25, 12, 8, 9, 4, 16, 9, 40, 43, 19, 0)
s = 170: (0, 27, 16, 8, 20, 7, 11, 10, 59, 33, 17, 0)
s = 171: (0, 29, 8, 6, 10, 7, 12, 9, 78, 28, 12, 0)
s = 172: (0, 19, 11, 5, 8, 8, 6, 13, 58, 33, 23, 0)
s = 173: (0, 26, 12, 7, 18, 7, 15, 13, 43, 27, 16, 0)
s = 174: (0, 28, 12, 8, 16, 6, 7, 12, 35, 23, 16, 0)
s = 175: (0, 31, 11, 5, 13, 9, 10, 8, 62, 34, 19, 0)
s = 176: (0, 25, 13, 13, 13, 7, 9, 8, 35, 20, 17, 0)
s = 177: (0, 22, 10, 8, 15, 9, 9, 9, 92, 45, 12, 0)
s = 178: (0, 27, 9, 6, 20, 8, 7, 12, 51, 28, 19, 0)
s = 179: (0, 40, 12, 7, 16, 6, 11, 8, 48, 22, 14, 0)
s = 180: (0, 30, 6, 9, 13, 9, 10, 10, 52, 43, 9, 0)
s = 181: (0, 37, 10, 7, 11, 7, 6, 9, 45, 20, 12, 0)
s = 182: (0, 25, 8, 7, 9, 5, 9, 9, 88, 24, 18, 0)
s = 183: (0, 21, 12, 9, 9, 7, 13, 9, 76, 25, 12, 0)
s = 184: (0, 26, 11, 9, 19, 9, 10, 7, 38, 45, 12, 0)
s = 185: (0, 32, 13, 6, 8, 7, 7, 11, 34, 38, 12, 0)
s = 186: (0, 33, 11, 6, 13, 6, 8, 11, 82, 27, 16, 0)
s = 187: (0, 21, 18, 6, 11, 6, 7, 12, 58, 44, 25, 0)
s = 188: (0, 34, 7, 8, 15, 4, 7, 12, 36, 40, 17, 0)
s = 189: (0, 24, 10, 5, 9, 7, 14, 11, 34, 30, 21, 0)
s = 190: (0, 27, 13, 7, 10, 5, 8, 17, 74, 22, 17, 0)
s = 191: (0, 33, 12, 5, 13, 7, 7, 7, 49, 49, 23, 0)
s = 192: (0, 45, 8, 7, 9, 9, 7, 8, 53, 36, 14, 0)
s = 193: (0, 33, 10, 9, 20, 6, 6, 10, 51, 54, 11, 0)
s = 194: (0, 34, 9, 10, 17, 7, 11, 13, 56, 31, 18, 0)
s = 195: (0, 27, 11, 10, 12, 7, 11, 10, 43, 44, 16, 0)
s = 196: (0, 24, 8, 7, 16, 6, 9, 10, 35, 63, 17, 0)
s = 197: (0, 20, 7, 10, 15, 7, 8, 14, 62, 47, 26, 0)
s = 198: (0, 22, 13, 7, 7, 5, 11, 11, 49, 33, 12, 0)
s = 199: (0, 36, 8, 6, 10, 6, 9, 13, 45, 33, 17, 0)
s = 200: (0, 29, 13, 7, 9, 6, 8, 9, 39, 42, 19, 0)
------------------------------------------------------------------------
RESOURCE k = 3
s = 1: (0, 14, 10, 3, 9, 9, 4, 8, 39, 41, 43, 0)
s = 2: (0, 16, 8, 3, 11, 6, 7, 8, 29, 32, 46, 0)
s = 3: (0, 16, 15, 2, 8, 7, 4, 6, 53, 26, 48, 0)
s = 4: (0, 33, 12, 2, 6, 6, 7, 9, 46, 33, 51, 0)
s = 5: (0, 19, 17, 3, 11, 6, 6, 8, 32, 45, 31, 0)
s = 6: (0, 20, 11, 3, 9, 9, 5, 7, 64, 41, 38, 0)
s = 7: (0, 22, 10, 3, 12, 7, 8, 5, 39, 30, 50, 0)
s = 8: (0, 17, 13, 2, 12, 4, 6, 9, 49, 42, 56, 0)
s = 9: (0, 27, 10, 2, 13, 7, 5, 6, 65, 41, 38, 0)
s = 10: (0, 17, 11, 2, 11, 5, 7, 6, 44, 35, 47, 0)
s = 11: (0, 20, 14, 2, 8, 4, 5, 5, 35, 43, 43, 0)
s = 12: (0, 19, 11, 2, 15, 7, 5, 6, 72, 25, 72, 0)
s = 13: (0, 27, 15, 3, 13, 5, 6, 10, 61, 31, 59, 0)
s = 14: (0, 20, 20, 2, 14, 7, 5, 6, 28, 40, 33, 0)
s = 15: (0, 32, 14, 3, 10, 5, 5, 8, 37, 37, 26, 0)
s = 16: (0, 20, 10, 3, 13, 7, 4, 6, 42, 49, 52, 0)
s = 17: (0, 25, 10, 3, 12, 6, 8, 8, 56, 36, 42, 0)
s = 18: (0, 23, 14, 3, 7, 4, 5, 7, 46, 58, 60, 0)
s = 19: (0, 23, 9, 3, 7, 6, 7, 11, 59, 37, 31, 0)
s = 20: (0, 14, 13, 2, 8, 7, 5, 11, 31, 23, 27, 0)
s = 21: (0, 20, 9, 2, 12, 9, 6, 6, 37, 50, 56, 0)
s = 22: (0, 22, 10, 4, 17, 7, 9, 6, 36, 65, 35, 0)
s = 23: (0, 20, 11, 4, 15, 5, 6, 10, 28, 54, 53, 0)
s = 24: (0, 12, 7, 4, 7, 6, 9, 8, 32, 32, 65, 0)
s = 25: (0, 24, 10, 2, 11, 6, 5, 13, 32, 28, 57, 0)
s = 26: (0, 24, 18, 2, 7, 7, 5, 5, 44, 53, 33, 0)
s = 27: (0, 17, 19, 2, 9, 8, 6, 5, 53, 27, 54, 0)
s = 28: (0, 18, 7, 2, 15, 8, 6, 6, 33, 41, 42, 0)
s = 29: (0, 19, 16, 2, 12, 6, 4, 6, 33, 23, 48, 0)
s = 30: (0, 31, 10, 2, 8, 5, 6, 5, 54, 32, 47, 0)
s = 31: (0, 15, 9, 3, 11, 9, 5, 7, 46, 24, 61, 0)
s = 32: (0, 22, 9, 2, 9, 4, 4, 7, 40, 31, 39, 0)
s = 33: (0, 17, 15, 3, 12, 5, 8, 10, 77, 36, 32, 0)
s = 34: (0, 16, 9, 2, 15, 9, 5, 7, 55, 28, 35, 0)
s = 35: (0, 21, 12, 3, 9, 6, 9, 7, 36, 27, 49, 0)
s = 36: (0, 21, 9, 2, 7, 6, 6, 6, 39, 24, 46, 0)
s = 37: (0, 18, 15, 3, 11, 4, 6, 7, 41, 34, 46, 0)
s = 38: (0, 24, 12, 3, 18, 7, 7, 5, 53, 40, 42, 0)
s = 39: (0, 29, 10, 2, 17, 5, 5, 5, 43, 21, 55, 0)
s = 40: (0, 28, 17, 3, 10, 7, 6, 6, 74, 42, 62, 0)
s = 41: (0, 23, 14, 2, 7, 11, 7, 6, 41, 28, 49, 0)
s = 42: (0, 24, 15, 3, 11, 4, 4, 10, 46, 52, 37, 0)
s = 43: (0, 22, 10, 3, 13, 9, 6, 6, 40, 67, 38, 0)
s = 44: (0, 20, 12, 3, 11, 5, 8, 8, 40, 21, 80, 0)
s = 45: (0, 15, 7, 4, 13, 5, 6, 8, 30, 42, 53, 0)
s = 46: (0, 21, 14, 3, 10, 4, 8, 6, 72, 28, 34, 0)
s = 47: (0, 15, 11, 3, 10, 7, 6, 6, 30, 29, 38, 0)
s = 48: (0, 22, 10, 2, 13, 7, 5, 7, 68, 32, 34, 0)
s = 49: (0, 19, 8, 3, 10, 6, 5, 7, 69, 24, 86, 0)
s = 50: (0, 22, 14, 3, 8, 7, 8, 11, 64, 58, 44, 0)
s = 51: (0, 21, 10, 2, 7, 5, 6, 12, 59, 47, 27, 0)
s = 52: (0, 30, 9, 3, 7, 6, 6, 8, 57, 63, 66, 0)
s = 53: (0, 24, 9, 2, 10, 7, 4, 12, 45, 22, 38, 0)
s = 54: (0, 14, 11, 2, 7, 6, 5, 8, 39, 32, 47, 0)
s = 55: (0, 15, 13, 2, 8, 9, 5, 7, 53, 37, 62, 0)
s = 56: (0, 23, 10, 3, 16, 4, 6, 5, 57, 22, 45, 0)
s = 57: (0, 21, 10, 2, 10, 10, 7, 6, 53, 30, 51, 0)
s = 58: (0, 20, 13, 2, 9, 8, 10, 6, 48, 29, 48, 0)
s = 59: (0, 19, 13, 3, 13, 11, 4, 9, 40, 38, 33, 0)
s = 60: (0, 18, 18, 2, 7, 6, 6, 8, 48, 31, 49, 0)
s = 61: (0, 25, 14, 2, 7, 7, 8, 8, 41, 53, 30, 0)
s = 62: (0, 26, 13, 2, 10, 5, 7, 9, 35, 33, 78, 0)
s = 63: (0, 12, 14, 2, 8, 8, 5, 5, 48, 57, 50, 0)
s = 64: (0, 21, 9, 3, 7, 7, 4, 8, 50, 24, 42, 0)
s = 65: (0, 32, 13, 2, 8, 5, 8, 6, 26, 32, 46, 0)
s = 66: (0, 22, 19, 2, 15, 4, 4, 6, 54, 58, 64, 0)
s = 67: (0, 19, 15, 3, 8, 10, 6, 5, 71, 27, 62, 0)
s = 68: (0, 22, 17, 2, 13, 10, 8, 8, 75, 39, 31, 0)
s = 69: (0, 34, 8, 3, 15, 9, 5, 5, 27, 34, 46, 0)
s = 70: (0, 15, 15, 2, 8, 5, 7, 13, 57, 21, 43, 0)
s = 71: (0, 21, 10, 2, 11, 5, 9, 7, 31, 29, 34, 0)
s = 72: (0, 22, 10, 2, 12, 7, 6, 7, 62, 33, 39, 0)
s = 73: (0, 29, 25, 3, 13, 5, 5, 8, 74, 27, 34, 0)
s = 74: (0, 26, 11, 2, 14, 8, 7, 8, 64, 59, 29, 0)
s = 75: (0, 16, 21, 3, 9, 9, 8, 5, 67, 35, 35, 0)
s = 76: (0, 23, 9, 3, 8, 7, 9, 10, 34, 53, 53, 0)
s = 77: (0, 24, 15, 3, 8, 6, 6, 9, 52, 33, 27, 0)
s = 78: (0, 19, 17, 2, 16, 5, 5, 5, 53, 24, 31, 0)
s = 79: (0, 21, 13, 3, 8, 4, 5, 6, 55, 34, 51, 0)
s = 80: (0, 25, 15, 4, 8, 5, 6, 5, 48, 36, 35, 0)
s = 81: (0, 30, 17, 3, 9, 4, 10, 10, 58, 35, 48, 0)
s = 82: (0, 17, 11, 3, 12, 7, 9, 7, 32, 46, 59, 0)
s = 83: (0, 20, 15, 2, 15, 6, 6, 11, 45, 54, 48, 0)
s = 84: (0, 31, 8, 2, 7, 7, 5, 7, 44, 31, 54, 0)
s = 85: (0, 24, 9, 3, 10, 7, 4, 6, 82, 38, 34, 0)
s = 86: (0, 18, 14, 2, 15, 4, 4, 9, 33, 21, 34, 0)
s = 87: (0, 13, 9, 3, 8, 10, 9, 6, 70, 26, 45, 0)
s = 88: (0, 26, 20, 2, 11, 9, 6, 7, 48, 33, 50, 0)
s = 89: (0, 14, 11, 3, 10, 5, 6, 6, 42, 36, 46, 0)
s = 90: (0, 16, 16, 3, 11, 6, 7, 8, 29, 26, 29, 0)
s = 91: (0, 21, 11, 2, 11, 10, 7, 4, 61, 42, 32, 0)
s = 92: (0, 17, 10, 2, 11, 4, 7, 10, 45, 53, 53, 0)
s = 93: (0, 20, 10, 2, 11, 5, 4, 5, 69, 48, 27, 0)
s = 94: (0, 29, 17, 3, 7, 6, 7, 8, 49, 44, 68, 0)
s = 95: (0, 23, 9, 4, 15, 11, 7, 7, 34, 41, 31, 0)
s = 96: (0, 20, 11, 2, 7, 7, 5, 9, 72, 25, 36, 0)
s = 97: (0, 12, 11, 3, 7, 8, 6, 7, 39, 24, 31, 0)
s = 98: (0, 13, 12, 2, 11, 9, 6, 9, 65, 35, 72, 0)
s = 99: (0, 30, 11, 2, 8, 5, 6, 7, 61, 43, 45, 0)
s = 100: (0, 16, 11, 2, 8, 11, 10, 6, 66, 36, 52, 0)
s = 101: (0, 28, 14, 2, 10, 6, 7, 5, 52, 27, 51, 0)
s = 102: (0, 17, 10, 2, 6, 7, 6, 9, 50, 25, 26, 0)
s = 103: (0, 24, 7, 2, 12, 4, 7, 7, 48, 50, 48, 0)
s = 104: (0, 24, 8, 3, 11, 4, 5, 10, 37, 44, 51, 0)
s = 105: (0, 19, 12, 2, 8, 7, 5, 9, 38, 20, 72, 0)
s = 106: (0, 26, 16, 3, 10, 8, 5, 5, 28, 28, 61, 0)
s = 107: (0, 18, 15, 3, 10, 9, 7, 8, 36, 22, 36, 0)
s = 108: (0, 16, 15, 2, 11, 4, 5, 7, 29, 24, 44, 0)
s = 109: (0, 13, 11, 2, 12, 7, 7, 8, 57, 39, 51, 0)
s = 110: (0, 15, 12, 3, 14, 9, 5, 7, 42, 40, 67, 0)
s = 111: (0, 20, 10, 2, 9, 8, 9, 9, 46, 35, 67, 0)
s = 112: (0, 24, 13, 3, 13, 6, 5, 11, 32, 39, 37, 0)
s = 113: (0, 16, 15, 4, 16, 11, 4, 5, 39, 31, 56, 0)
s = 114: (0, 20, 11, 3, 9, 8, 7, 11, 76, 34, 42, 0)
s = 115: (0, 43, 7, 2, 14, 7, 9, 9, 71, 34, 54, 0)
s = 116: (0, 31, 21, 3, 8, 5, 6, 5, 55, 52, 40, 0)
s = 117: (0, 20, 15, 2, 16, 5, 4, 4, 71, 27, 28, 0)
s = 118: (0, 23, 12, 3, 6, 6, 7, 6, 46, 57, 45, 0)
s = 119: (0, 22, 14, 2, 17, 5, 7, 7, 48, 36, 45, 0)
s = 120: (0, 15, 13, 3, 7, 6, 10, 7, 60, 51, 45, 0)
s = 121: (0, 22, 9, 2, 9, 5, 7, 8, 56, 25, 26, 0)
s = 122: (0, 23, 12, 3, 10, 5, 7, 6, 78, 36, 48, 0)
s = 123: (0, 19, 17, 2, 6, 5, 5, 9, 44, 40, 58, 0)
s = 124: (0, 18, 16, 3, 9, 4, 4, 6, 55, 40, 34, 0)
s = 125: (0, 31, 10, 2, 11, 6, 7, 11, 58, 36, 29, 0)
s = 126: (0, 31, 10, 3, 9, 5, 9, 9, 34, 63, 47, 0)
s = 127: (0, 16, 7, 3, 11, 6, 7, 5, 39, 22, 40, 0)
s = 128: (0, 16, 8, 3, 9, 7, 4, 5, 51, 31, 36, 0)
s = 129: (0, 21, 14, 2, 9, 7, 5, 7, 44, 44, 74, 0)
s = 130: (0, 15, 21, 3, 12, 6, 4, 6, 73, 30, 61, 0)
s = 131: (0, 15, 8, 2, 9, 5, 9, 8, 62, 34, 46, 0)
s = 132: (0, 28, 13, 3, 13, 5, 10, 9, 56, 37, 54, 0)
s = 133: (0, 16, 19, 2, 8, 5, 5, 6, 36, 41, 50, 0)
s = 134: (0, 26, 13, 3, 14, 7, 8, 9, 41, 44, 48, 0)
s = 135: (0, 18, 11, 2, 7, 6, 5, 13, 36, 29, 37, 0)
s = 136: (0, 25, 14, 4, 9, 5, 5, 8, 87, 29, 35, 0)
s = 137: (0, 33, 14, 2, 9, 7, 9, 6, 51, 43, 47, 0)
s = 138: (0, 13, 9, 2, 12, 6, 8, 6, 51, 32, 42, 0)
s = 139: (0, 29, 12, 2, 14, 5, 6, 5, 51, 50, 55, 0)
s = 140: (0, 21, 13, 2, 7, 10, 10, 5, 43, 38, 64, 0)
s = 141: (0, 37, 13, 2, 11, 5, 5, 10, 50, 50, 58, 0)
s = 142: (0, 16, 14, 2, 10, 5, 6, 7, 39, 29, 26, 0)
s = 143: (0, 31, 15, 2, 17, 5, 7, 9, 37, 35, 51, 0)
s = 144: (0, 18, 15, 2, 11, 6, 9, 11, 42, 27, 44, 0)
s = 145: (0, 19, 9, 2, 13, 5, 8, 8, 39, 29, 39, 0)
s = 146: (0, 17, 9, 2, 12, 8, 4, 4, 53, 51, 30, 0)
s = 147: (0, 21, 12, 2, 13, 4, 5, 8, 53, 40, 38, 0)
s = 148: (0, 18, 22, 3, 11, 6, 4, 7, 65, 26, 45, 0)
s = 149: (0, 15, 15, 3, 11, 4, 8, 9, 60, 46, 37, 0)
s = 150: (0, 26, 12, 3, 15, 11, 8, 5, 41, 32, 53, 0)
s = 151: (0, 33, 9, 2, 10, 6, 8, 7, 31, 58, 51, 0)
s = 152: (0, 33, 13, 2, 9, 12, 5, 9, 40, 47, 36, 0)
s = 153: (0, 25, 23, 2, 11, 9, 6, 12, 35, 39, 59, 0)
s = 154: (0, 27, 10, 2, 9, 7, 7, 9, 28, 37, 47, 0)
s = 155: (0, 17, 7, 2, 10, 6, 6, 8, 68, 51, 30, 0)
s = 156: (0, 19, 15, 3, 9, 9, 6, 6, 74, 24, 76, 0)
s = 157: (0, 14, 11, 2, 18, 5, 6, 5, 65, 27, 36, 0)
s = 158: (0, 21, 19, 2, 9, 8, 8, 6, 71, 39, 36, 0)
s = 159: (0, 13, 7, 3, 6, 9, 6, 6, 27, 36, 59, 0)
s = 160: (0, 13, 20, 2, 10, 7, 8, 6, 32, 21, 32, 0)
s = 161: (0, 18, 15, 2, 9, 7, 6, 8, 71, 49, 43, 0)
s = 162: (0, 27, 16, 2, 18, 5, 5, 5, 46, 34, 42, 0)
s = 163: (0, 12, 11, 2, 8, 7, 8, 7, 37, 20, 68, 0)
s = 164: (0, 31, 8, 3, 7, 9, 8, 7, 36, 39, 34, 0)
s = 165: (0, 14, 14, 3, 12, 7, 9, 6, 79, 27, 71, 0)
s = 166: (0, 25, 8, 3, 10, 8, 9, 9, 53, 51, 58, 0)
s = 167: (0, 13, 10, 2, 11, 5, 7, 7, 38, 30, 55, 0)
s = 168: (0, 34, 12, 3, 16, 6, 8, 10, 50, 28, 60, 0)
s = 169: (0, 18, 14, 2, 8, 4, 11, 6, 36, 43, 55, 0)
s = 170: (0, 19, 19, 2, 17, 7, 8, 7, 52, 33, 49, 0)
s = 171: (0, 21, 10, 2, 8, 7, 8, 6, 69, 28, 36, 0)
s = 172: (0, 13, 13, 2, 7, 8, 4, 9, 52, 33, 68, 0)
s = 173: (0, 18, 14, 2, 15, 7, 10, 9, 38, 27, 46, 0)
s = 174: (0, 20, 14, 2, 13, 6, 5, 8, 31, 23, 46, 0)
s = 175: (0, 22, 13, 2, 11, 9, 7, 6, 55, 34, 56, 0)
s = 176: (0, 18, 16, 4, 11, 7, 6, 6, 31, 20, 51, 0)
s = 177: (0, 16, 12, 2, 13, 9, 6, 6, 82, 45, 34, 0)
s = 178: (0, 19, 11, 2, 17, 8, 5, 9, 45, 28, 55, 0)
s = 179: (0, 28, 14, 2, 14, 6, 7, 6, 43, 22, 42, 0)
s = 180: (0, 21, 7, 3, 11, 9, 7, 7, 46, 43, 27, 0)
s = 181: (0, 26, 12, 2, 9, 7, 4, 7, 40, 20, 36, 0)
s = 182: (0, 18, 9, 2, 7, 5, 6, 7, 78, 24, 52, 0)
s = 183: (0, 15, 14, 3, 8, 7, 9, 6, 68, 25, 35, 0)
s = 184: (0, 18, 13, 3, 16, 9, 7, 5, 33, 45, 36, 0)
s = 185: (0, 22, 15, 2, 6, 7, 5, 8, 30, 38, 34, 0)
s = 186: (0, 24, 13, 2, 11, 6, 6, 8, 73, 27, 48, 0)
s = 187: (0, 15, 21, 2, 9, 6, 5, 9, 51, 44, 73, 0)
s = 188: (0, 24, 8, 2, 13, 4, 5, 8, 32, 40, 51, 0)
s = 189: (0, 17, 12, 2, 8, 7, 9, 8, 30, 30, 61, 0)
s = 190: (0, 19, 16, 2, 9, 5, 5, 12, 66, 22, 50, 0)
s = 191: (0, 23, 15, 2, 11, 7, 5, 5, 44, 49, 67, 0)
s = 192: (0, 31, 10, 2, 7, 9, 5, 6, 47, 36, 41, 0)
s = 193: (0, 23, 12, 3, 16, 6, 4, 7, 46, 54, 32, 0)
s = 194: (0, 24, 10, 3, 15, 7, 7, 9, 50, 31, 54, 0)
s = 195: (0, 19, 13, 3, 10, 7, 8, 7, 38, 44, 46, 0)
s = 196: (0, 17, 10, 2, 14, 6, 6, 7, 31, 63, 50, 0)
s = 197: (0, 14, 9, 3, 12, 7, 6, 10, 55, 47, 78, 0)
s = 198: (0, 16, 15, 2, 6, 5, 8, 8, 43, 33, 35, 0)
s = 199: (0, 25, 9, 2, 8, 6, 6, 9, 40, 33, 49, 0)
s = 200: (0, 21, 16, 2, 7, 6, 5, 6, 34, 42, 56, 0)
************************************************************************
ES/LS-VALUES:
jobnr.   ES(i)    LS(i)
------------------------------------------------------------------------
  0        0        0
  1        0       56
  2        0       56
  3        0       61
  4        4       61
  5        6       63
  6        7       65
  7        8       65
  8        8       66
  9        8       67
 10        9       67
 11       18       77
************************************************************************
BIG-M-VALUES:
M1 = 63, M2 = 348
************************************************************************
